DATASET = "thpack3";
INSTANCE = "097";

WIDTH = 233;
HEIGHT = 220;
LENGTH = 587;

NO_OF_SHAPES = 8;
size = [|
  74,60,32 |
  100,50,43 |
  95,74,42 |
  95,70,30 |
  45,37,24 |
  67,60,25 |
  55,51,35 |
  76,71,61 |
|];

verticality = [|
  0,1,1 |
  0,1,1 |
  0,1,1 |
  0,0,1 |
  1,1,1 |
  0,0,1 |
  1,1,1 |
  1,1,1 |
|];

box_count = [
  19,
  19,
  25,
  21,
  22,
  19,
  20,
  21,
];
